node 0 w: 7.0, h: 9.0
node 1 w: 5.0, h: 8.0
node 2 w: 7.0, h:2026-07-02 00:38:31 - INFO - Set parameter Username
2026-07-02 00:38:31 - INFO - Set parameter LicenseID to value 2840060
2026-07-02 00:38:31 - INFO - Academic license - for non-commercial use only - expires 2027-07-01
2026-07-02 00:38:31 - INFO - Set parameter TimeLimit to value 300
2026-07-02 00:38:31 - INFO - Set parameter MIPGap to value 0
2026-07-02 00:38:31 - INFO - Set parameter MIPFocus to value 3
2026-07-02 00:38:31 - INFO - Set parameter Heuristics to value 0.5
2026-07-02 00:38:31 - INFO - Set parameter LogToConsole to value 1
2026-07-02 00:38:31 - INFO - Gurobi Optimizer version 13.0.1 build v13.0.1rc0 (linux64 - "Ubuntu 20.04.6 LTS")
2026-07-02 00:38:31 - INFO - 
2026-07-02 00:38:31 - INFO - CPU model: AMD Ryzen 9 9950X3D 16-Core Processor, instruction set [SSE2|AVX|AVX2|AVX512]
2026-07-02 00:38:31 - INFO - Thread count: 14 physical cores, 28 logical processors, using up to 28 threads
2026-07-02 00:38:31 - INFO - 
2026-07-02 00:38:31 - INFO - Non-default parameters:
2026-07-02 00:38:31 - INFO - TimeLimit  300
2026-07-02 00:38:31 - INFO - MIPGap  0
2026-07-02 00:38:31 - INFO - Heuristics  0.5
2026-07-02 00:38:31 - INFO - MIPFocus  3
2026-07-02 00:38:31 - INFO - 
2026-07-02 00:38:31 - INFO - Optimize a model with 2347 rows, 1068 columns and 8079 nonzeros (Min)
2026-07-02 00:38:31 - INFO - Model fingerprint: 0xc7437ecd
2026-07-02 00:38:31 - INFO - Model has 3 linear objective coefficients
2026-07-02 00:38:31 - INFO - Variable types: 398 continuous, 670 integer (670 binary)
2026-07-02 00:38:31 - INFO - Coefficient statistics:
2026-07-02 00:38:31 - INFO -   Matrix range     [3e-01, 3e+03]
2026-07-02 00:38:31 - INFO -   Objective range  [4e-05, 9e-02]
2026-07-02 00:38:31 - INFO -   Bounds range     [9e-01, 3e+07]
2026-07-02 00:38:31 - INFO -   RHS range        [9e-01, 3e+02]
2026-07-02 00:38:31 - INFO - 
2026-07-02 00:38:31 - INFO - Presolve removed 183 rows and 161 columns
2026-07-02 00:38:31 - INFO - Presolve time: 0.02s
2026-07-02 00:38:31 - INFO - Presolved: 2164 rows, 907 columns, 7482 nonzeros
2026-07-02 00:38:31 - INFO - Variable types: 275 continuous, 632 integer (632 binary)
2026-07-02 00:38:31 - INFO - Root relaxation presolve removed 256 rows and 68 columns
2026-07-02 00:38:31 - INFO - Root relaxation presolved: 1908 rows, 871 columns, 6892 nonzeros
2026-07-02 00:38:31 - INFO - 
2026-07-02 00:38:31 - INFO - 
2026-07-02 00:38:31 - INFO - Root relaxation: objective 1.770005e+00, 421 iterations, 0.01 seconds (0.01 work units)
2026-07-02 00:38:31 - INFO - 
2026-07-02 00:38:31 - INFO -     Nodes    |    Current Node    |     Objective Bounds      |     Work
2026-07-02 00:38:31 - INFO -  Expl Unexpl |  Obj  Depth IntInf | Incumbent    BestBd   Gap | It/Node Time
2026-07-02 00:38:31 - INFO - 
2026-07-02 00:38:31 - INFO -      0     0    1.77001    0  252          -    1.77001      -     -    0s
2026-07-02 00:38:31 - INFO -      0     0    2.56453    0  269          -    2.56453      -     -    0s
2026-07-02 00:38:31 - INFO -      0     0    2.56453    0  255          -    2.56453      -     -    0s
2026-07-02 00:38:32 - INFO -      0     0    2.94845    0  264          -    2.94845      -     -    0s
2026-07-02 00:38:32 - INFO -      0     0    3.18431    0  305          -    3.18431      -     -    0s
2026-07-02 00:38:32 - INFO -      0     0    3.18431    0  303          -    3.18431      -     -    0s
2026-07-02 00:38:32 - INFO -      0     0    3.18431    0  280          -    3.18431      -     -    0s
2026-07-02 00:38:32 - INFO -      0     0    3.58265    0  296          -    3.58265      -     -    0s
2026-07-02 00:38:32 - INFO -      0     0    3.58265    0  303          -    3.58265      -     -    0s
2026-07-02 00:38:32 - INFO -      0     0    3.58265    0  313          -    3.58265      -     -    0s
2026-07-02 00:38:32 - INFO -      0     0    3.58265    0  315          -    3.58265      -     -    0s
2026-07-02 00:38:32 - INFO -      0     0    3.58265    0  316          -    3.58265      -     -    0s
2026-07-02 00:38:32 - INFO -      0     0    3.58265    0  320          -    3.58265      -     -    0s
2026-07-02 00:38:32 - INFO -      0     0    3.61451    0  337          -    3.61451      -     -    0s
2026-07-02 00:38:32 - INFO -      0     0    3.61451    0  336          -    3.61451      -     -    0s
2026-07-02 00:38:32 - INFO -      0     0    3.61451    0  336          -    3.61451      -     -    1s
2026-07-02 00:38:33 - INFO -      0     0    3.77496    0  335          -    3.77496      -     -    1s
2026-07-02 00:38:33 - INFO -      0     0    3.77496    0  312          -    3.77496      -     -    1s
2026-07-02 00:38:35 - INFO -      0     2    3.77496    0  312          -    3.77496      -     -    3s
2026-07-02 00:38:36 - INFO -   2078  2012    5.21893   14  312          -    4.96391      -  91.8    5s
2026-07-02 00:38:41 - INFO -   2107  2031    5.79201   11  383          -    4.96391      -  90.6   10s
2026-07-02 00:38:46 - INFO -   2696  2420    5.66421   25  241          -    4.96850      -   138   15s
2026-07-02 00:38:51 - INFO -   4954  3767    5.68464   28  243          -    5.44834      -   181   20s
2026-07-02 00:38:56 - INFO -   9477  6296    5.99467   26  235          -    5.54532      -   157   25s
2026-07-02 00:39:01 - INFO -  15267  9732    6.36045   29  206          -    5.63519      -   148   30s
2026-07-02 00:39:07 - INFO -  21079 12507    5.93162   28  238          -    5.69946      -   142   35s
2026-07-02 00:39:11 - INFO -  25373 14203    6.03189   32  190          -    5.74355      -   141   40s
2026-07-02 00:39:16 - INFO -  31539 16367    6.07009   26  220          -    5.79022      -   139   45s
2026-07-02 00:39:21 - INFO -  32809 17255    5.94323   29  230          -    5.80957      -   139   50s
2026-07-02 00:39:26 - INFO -  39425 19556    5.92887   29  210          -    5.84305      -   139   55s
2026-07-02 00:39:32 - INFO -  46831 22177 infeasible   24               -    5.88295      -   138   60s
2026-07-02 00:39:37 - INFO -  55699 24716    6.20637   30  216          -    5.92338      -   138   66s
2026-07-02 00:39:42 - INFO -  61977 26353    6.08832   31  221          -    5.95600      -   138   71s
2026-07-02 00:39:47 - INFO -  68247 27494 infeasible   30               -    5.98371      -   139   76s
2026-07-02 00:39:51 - INFO -  74486 28899    6.73314   29  180          -    6.00764      -   139   80s
2026-07-02 00:39:57 - INFO -  79575 30361 infeasible   29               -    6.03064      -   139   86s
2026-07-02 00:40:05 - INFO -  84393 32507    6.11984   35  189          -    6.04692      -   140   93s
2026-07-02 00:40:06 - INFO -  93692 32767    6.27122   28  210          -    6.06058      -   139   95s
2026-07-02 00:40:14 - INFO -  98555 34295 infeasible   37               -    6.10012      -   140  102s
2026-07-02 00:40:18 - INFO -  103034 35342    6.16975   28  245          -    6.11599      -   140  107s
2026-07-02 00:40:22 - INFO -  110282 36320 infeasible   35               -    6.14171      -   140  111s
2026-07-02 00:40:27 - INFO -  115902 37008    6.30716   29  216          -    6.16057      -   140  115s
2026-07-02 00:40:33 - INFO -  118661 37537    6.96664   31  168          -    6.17489      -   141  121s
2026-07-02 00:40:38 - INFO -  124740 38768 infeasible   33               -    6.20030      -   141  127s
2026-07-02 00:40:44 - INFO -  132183 39327    6.62133   32  204          -    6.22711      -   141  132s
2026-07-02 00:40:47 - INFO -  134159 39464    6.30963   31  214          -    6.23470      -   141  135s
2026-07-02 00:40:52 - INFO -  140043 40081    6.84326   30  171          -    6.25431      -   142  141s
2026-07-02 00:41:09 - INFO -  140079 39982    7.33713   30  167          -    6.25887      -   142  158s
2026-07-02 00:41:11 - INFO -  167002 40201    6.62759   31  190          -    6.30812      -   141  160s
2026-07-02 00:41:17 - INFO -  174429 40924 infeasible   37               -    6.33111      -   142  166s
2026-07-02 00:41:22 - INFO -  179662 41466    7.36542   33  146          -    6.34973      -   142  170s
2026-07-02 00:41:26 - INFO -  185374 41793 infeasible   28               -    6.37487      -   143  175s
2026-07-02 00:41:32 - INFO -  193707 42235    7.19871   33  158          -    6.41415      -   144  181s
2026-07-02 00:41:41 - INFO -  197774 42720    6.95726   28  197          -    6.43204      -   144  189s
2026-07-02 00:41:42 - INFO -  209824 42771 infeasible   33               -    6.47937      -   145  191s
2026-07-02 00:41:46 - INFO -  212316 42768    6.75041   30  197          -    6.49046      -   145  195s
2026-07-02 00:41:53 - INFO -  219397 43054    6.73622   35  173          -    6.52925      -   146  202s
2026-07-02 00:41:58 - INFO -  223360 43172 infeasible   34               -    6.54819      -   146  206s
2026-07-02 00:42:03 - INFO -  229303 43211    6.92796   32  188          -    6.57855      -   147  211s
2026-07-02 00:42:08 - INFO -  229942 43269    6.80868   30  194          -    6.58662      -   147  216s
2026-07-02 00:42:12 - INFO -  231477 43273 infeasible   38               -    6.58946      -   147  220s
2026-07-02 00:42:17 - INFO -  240743 43447    6.94549   29  202          -    6.64498      -   148  225s
2026-07-02 00:42:22 - INFO -  247176 43530    7.32365   36  147          -    6.67491      -   148  230s
2026-07-02 00:42:27 - INFO -  252678 43461    6.88621   28  215          -    6.70289      -   148  236s
2026-07-02 00:42:32 - INFO -  254296 43613 infeasible   33               -    6.71418      -   148  241s
2026-07-02 00:42:37 - INFO -  258864 43486    7.37485   33  228          -    6.73497      -   148  246s
2026-07-02 00:42:42 - INFO -  263578 43422 infeasible   37               -    6.76298      -   149  250s
2026-07-02 00:42:48 - INFO -  268021 43351    7.13877   33  160          -    6.78126      -   149  256s
2026-07-02 00:42:53 - INFO -  274951 43135 infeasible   28               -    6.82161      -   149  261s
2026-07-02 00:42:59 - INFO -  280417 42877 infeasible   29               -    6.85489      -   150  267s
2026-07-02 00:43:01 - INFO -  281584 42629 infeasible   36               -    6.86194      -   150  270s
2026-07-02 00:43:06 - INFO -  289603 42512 infeasible   30               -    6.90201      -   150  275s
2026-07-02 00:43:13 - INFO -  292730 42212 infeasible   35               -    6.91582      -   150  282s
2026-07-02 00:43:18 - INFO -  298936 41657    7.13958   27  192          -    6.93641      -   150  287s
2026-07-02 00:43:23 - INFO -  305913 41266 infeasible   30               -    6.99022      -   150  292s
2026-07-02 00:43:28 - INFO -  310812 40893    7.18043   26  198          -    7.00956      -   150  297s
2026-07-02 00:43:31 - INFO -  312968 40869 infeasible   35               -    7.02095      -   150  300s
2026-07-02 00:43:31 - INFO - 
2026-07-02 00:43:31 - INFO - Cutting planes:
2026-07-02 00:43:31 - INFO -   Learned: 59
2026-07-02 00:43:31 - INFO -   Gomory: 262
2026-07-02 00:43:31 - INFO -   Lift-and-project: 74
2026-07-02 00:43:31 - INFO -   Cover: 18
2026-07-02 00:43:31 - INFO -   Implied bound: 2
2026-07-02 00:43:31 - INFO -   Projected implied bound: 1
2026-07-02 00:43:31 - INFO -   MIR: 188
2026-07-02 00:43:31 - INFO -   Flow cover: 841
2026-07-02 00:43:31 - INFO -   Inf proof: 39
2026-07-02 00:43:31 - INFO -   Network: 2
2026-07-02 00:43:31 - INFO -   RLT: 5
2026-07-02 00:43:31 - INFO -   Relax-and-lift: 7
2026-07-02 00:43:31 - INFO - 
2026-07-02 00:43:31 - INFO - Explored 313170 nodes (47149894 simplex iterations) in 300.21 seconds (555.42 work units)
2026-07-02 00:43:31 - INFO - Thread count was 28 (of 28 available processors)
2026-07-02 00:43:31 - INFO - 
2026-07-02 00:43:31 - INFO - Solution count 0
2026-07-02 00:43:31 - INFO - 
2026-07-02 00:43:31 - INFO - Time limit reached
2026-07-02 00:43:31 - INFO - Best objective -, best bound 7.027967442263e+00, gap -
2026-07-02 00:43:31 - INFO - Set parameter TimeLimit to value 300
2026-07-02 00:43:31 - INFO - Set parameter MIPGap to value 0.3
2026-07-02 00:43:31 - INFO - Set parameter MIPFocus to value 3
2026-07-02 00:43:31 - INFO - Set parameter Heuristics to value 0.5
2026-07-02 00:43:31 - INFO - Set parameter LogToConsole to value 1
2026-07-02 00:43:31 - INFO - Gurobi Optimizer version 13.0.1 build v13.0.1rc0 (linux64 - "Ubuntu 20.04.6 LTS")
2026-07-02 00:43:31 - INFO - 
2026-07-02 00:43:31 - INFO - CPU model: AMD Ryzen 9 9950X3D 16-Core Processor, instruction set [SSE2|AVX|AVX2|AVX512]
2026-07-02 00:43:31 - INFO - Thread count: 14 physical cores, 28 logical processors, using up to 28 threads
2026-07-02 00:43:31 - INFO - 
2026-07-02 00:43:31 - INFO - Non-default parameters:
2026-07-02 00:43:31 - INFO - TimeLimit  300
2026-07-02 00:43:31 - INFO - MIPGap  0.3
2026-07-02 00:43:31 - INFO - Heuristics  0.5
2026-07-02 00:43:31 - INFO - MIPFocus  3
2026-07-02 00:43:31 - INFO - 
2026-07-02 00:43:31 - INFO - Optimize a model with 2347 rows, 1068 columns and 8079 nonzeros (Min)
2026-07-02 00:43:31 - INFO - Model fingerprint: 0xc7437ecd
2026-07-02 00:43:31 - INFO - Model has 3 linear objective coefficients
2026-07-02 00:43:31 - INFO - Variable types: 398 continuous, 670 integer (670 binary)
2026-07-02 00:43:31 - INFO - Coefficient statistics:
2026-07-02 00:43:31 - INFO -   Matrix range     [3e-01, 3e+03]
2026-07-02 00:43:31 - INFO -   Objective range  [4e-05, 9e-02]
2026-07-02 00:43:31 - INFO -   Bounds range     [9e-01, 3e+07]
2026-07-02 00:43:31 - INFO -   RHS range        [9e-01, 3e+02]
2026-07-02 00:43:31 - INFO - 
2026-07-02 00:43:31 - INFO - Presolved: 2164 rows, 907 columns, 7482 nonzeros
2026-07-02 00:43:31 - INFO - 
2026-07-02 00:43:31 - INFO - Continuing optimization...
2026-07-02 00:43:31 - INFO - 
2026-07-02 00:43:33 - INFO -  313170 41003    7.14963   27  195          -    7.02799      -   151  301s
2026-07-02 00:43:39 - INFO -  316847 40929    7.53185   34  234          -    7.04977      -   150  307s
2026-07-02 00:43:42 - INFO -  322818 40925    7.44611   32  138          -    7.06552      -   150  310s
2026-07-02 00:43:46 - INFO -  325444 40850    7.16650   33  163          -    7.08264      -   150  315s
2026-07-02 00:43:52 - INFO -  328517 40828 infeasible   28               -    7.10307      -   150  320s
2026-07-02 00:43:57 - INFO -  332462 40555 infeasible   34               -    7.12644      -   150  325s
2026-07-02 00:44:02 - INFO -  335358 40411 infeasible   35               -    7.14254      -   150  330s
2026-07-02 00:44:08 - INFO -  337383 40206 infeasible   39               -    7.14967      -   150  336s
2026-07-02 00:44:12 - INFO -  340472 39833 infeasible   36               -    7.16659      -   150  340s
2026-07-02 00:44:16 - INFO -  346075 39173 infeasible   34               -    7.20140      -   150  345s
2026-07-02 00:44:21 - INFO -  350393 38739 infeasible   36               -    7.22717      -   150  350s
2026-07-02 00:44:28 - INFO -  354266 37967 infeasible   31               -    7.25487      -   150  356s
2026-07-02 00:44:33 - INFO -  358615 37565    7.43345   30  190          -    7.28662      -   150  361s
2026-07-02 00:44:38 - INFO -  362971 37068    8.24160   33  151          -    7.31211      -   149  367s
2026-07-02 00:44:41 - INFO -  365349 36579    8.20651   34  129          -    7.33012      -   149  370s
2026-07-02 00:44:48 - INFO -  371224 35635    8.08941   33  132          -    7.37282      -   149  376s
2026-07-02 00:44:52 - INFO -  374390 34899 infeasible   43               -    7.39747      -   149  381s
2026-07-02 00:44:58 - INFO -  377768 34371 infeasible   30               -    7.41751      -   149  386s
2026-07-02 00:45:02 - INFO -  379911 33795 infeasible   33               -    7.43383      -   149  390s
2026-07-02 00:45:07 - INFO -  383788 33290    7.63052   39  134          -    7.47409      -   149  396s
2026-07-02 00:45:12 - INFO -  384460 33014 infeasible   39               -    7.47973      -   149  400s
2026-07-02 00:45:17 - INFO -  388262 32032 infeasible   36               -    7.49482      -   149  406s
2026-07-02 00:45:23 - INFO -  392606 31003 infeasible   37               -    7.53896      -   149  411s
2026-07-02 00:45:26 - INFO -  396679 30054 infeasible   32               -    7.59110      -   149  415s
2026-07-02 00:45:33 - INFO -  402698 28861 infeasible   35               -    7.64747      -   149  421s
2026-07-02 00:45:36 - INFO -  404553 28571 infeasible   40               -    7.66056      -   149  425s
2026-07-02 00:45:41 - INFO -  404858 28411 infeasible   39               -    7.67685      -   149  430s
2026-07-02 00:45:48 - INFO -  408661 26824 infeasible   38               -    7.71424      -   149  436s
2026-07-02 00:45:53 - INFO -  412769 25860    8.00834   36  143          -    7.76543      -   149  441s
2026-07-02 00:45:57 - INFO -  418223 23863 infeasible   38               -    7.83197      -   149  446s
2026-07-02 00:46:02 - INFO -  422235 22695 infeasible   33               -    7.88615      -   149  450s
2026-07-02 00:46:06 - INFO -  427896 20512    8.06414   37  128          -    7.96383      -   149  455s
2026-07-02 00:46:12 - INFO -  432613 19369 infeasible   35               -    8.04145      -   149  460s
2026-07-02 00:46:17 - INFO -  439362 17083 infeasible   37               -    8.14895      -   148  465s
2026-07-02 00:46:22 - INFO -  443926 15306 infeasible   39               -    8.22693      -   148  471s
2026-07-02 00:46:27 - INFO -  447706 13463 infeasible   37               -    8.30800      -   148  475s
2026-07-02 00:46:32 - INFO -  452288 11608 infeasible   44               -    8.40091      -   148  481s
2026-07-02 00:46:37 - INFO -  455407  9744 infeasible   38               -    8.45772      -   148  485s
2026-07-02 00:46:42 - INFO -  461671  6450 infeasible   37               -    8.71926      -   147  490s
2026-07-02 00:46:47 - INFO -  465683  4275 infeasible   42               -    8.90973      -   147  496s
2026-07-02 00:46:52 - INFO -  471426   788 infeasible   39               -    9.10217      -   146  501s
2026-07-02 00:46:54 - INFO - 
2026-07-02 00:46:54 - INFO - Cutting planes:
2026-07-02 00:46:54 - INFO -   Learned: 74
2026-07-02 00:46:54 - INFO -   Gomory: 305
2026-07-02 00:46:54 - INFO -   Lift-and-project: 95
2026-07-02 00:46:54 - INFO -   Cover: 25
2026-07-02 00:46:54 - INFO -   Implied bound: 2
2026-07-02 00:46:54 - INFO -   Projected implied bound: 1
2026-07-02 00:46:54 - INFO -   MIR: 216
2026-07-02 00:46:54 - INFO -   Flow cover: 996
2026-07-02 00:46:54 - INFO -   Inf proof: 77
2026-07-02 00:46:54 - INFO -   Network: 2
2026-07-02 00:46:54 - INFO -   RLT: 6
2026-07-02 00:46:54 - INFO -   Relax-and-lift: 8
2026-07-02 00:46:54 - INFO - 
2026-07-02 00:46:54 - INFO - Explored 473895 nodes (69264247 simplex iterations) in 502.77 seconds (1093.45 work units)
2026-07-02 00:46:54 - INFO - Most recent optimization runtime was 202.55 seconds (538.03 work units)
2026-07-02 00:46:54 - INFO - Thread count was 28 (of 28 available processors)
2026-07-02 00:46:54 - INFO - 
2026-07-02 00:46:54 - INFO - Solution count 0
2026-07-02 00:46:54 - INFO - 
2026-07-02 00:46:54 - INFO - Model is infeasible
2026-07-02 00:46:54 - INFO - Best objective -, best bound -, gap -
2026-07-02 00:46:54 - INFO - Set parameter TimeLimit to value 3110
2026-07-02 00:46:54 - INFO - Set parameter MIPGap to value 0.8
2026-07-02 00:46:54 - INFO - Set parameter MIPFocus to value 3
2026-07-02 00:46:54 - INFO - Set parameter Heuristics to value 0.5
2026-07-02 00:46:54 - INFO - Set parameter LogToConsole to value 1
2026-07-02 00:46:54 - INFO - Gurobi Optimizer version 13.0.1 build v13.0.1rc0 (linux64 - "Ubuntu 20.04.6 LTS")
2026-07-02 00:46:54 - INFO - 
2026-07-02 00:46:54 - INFO - CPU model: AMD Ryzen 9 9950X3D 16-Core Processor, instruction set [SSE2|AVX|AVX2|AVX512]
2026-07-02 00:46:54 - INFO - Thread count: 14 physical cores, 28 logical processors, using up to 28 threads
2026-07-02 00:46:54 - INFO - 
2026-07-02 00:46:54 - INFO - Non-default parameters:
2026-07-02 00:46:54 - INFO - TimeLimit  3110
2026-07-02 00:46:54 - INFO - MIPGap  0.8
2026-07-02 00:46:54 - INFO - Heuristics  0.5
2026-07-02 00:46:54 - INFO - MIPFocus  3
2026-07-02 00:46:54 - INFO - 
2026-07-02 00:46:54 - INFO - Optimize a model with 2347 rows, 1068 columns and 8079 nonzeros (Min)
2026-07-02 00:46:54 - INFO - Model fingerprint: 0xc7437ecd
2026-07-02 00:46:54 - INFO - Model has 3 linear objective coefficients
2026-07-02 00:46:54 - INFO - Variable types: 398 continuous, 670 integer (670 binary)
2026-07-02 00:46:54 - INFO - Coefficient statistics:
2026-07-02 00:46:54 - INFO -   Matrix range     [3e-01, 3e+03]
2026-07-02 00:46:54 - INFO -   Objective range  [4e-05, 9e-02]
2026-07-02 00:46:54 - INFO -   Bounds range     [9e-01, 3e+07]
2026-07-02 00:46:54 - INFO -   RHS range        [9e-01, 3e+02]
2026-07-02 00:46:54 - INFO - 
2026-07-02 00:46:54 - INFO - Presolved: 2164 rows, 907 columns, 7482 nonzeros
2026-07-02 00:46:54 - INFO - 
2026-07-02 00:46:54 - INFO - Continuing optimization...
2026-07-02 00:46:54 - INFO - 
2026-07-02 00:46:54 - INFO - 
2026-07-02 00:46:54 - INFO - Cutting planes:
2026-07-02 00:46:54 - INFO -   Learned: 74
2026-07-02 00:46:54 - INFO -   Gomory: 305
2026-07-02 00:46:54 - INFO -   Lift-and-project: 95
2026-07-02 00:46:54 - INFO -   Cover: 25
2026-07-02 00:46:54 - INFO -   Implied bound: 2
2026-07-02 00:46:54 - INFO -   Projected implied bound: 1
2026-07-02 00:46:54 - INFO -   MIR: 216
2026-07-02 00:46:54 - INFO -   Flow cover: 996
2026-07-02 00:46:54 - INFO -   Inf proof: 77
2026-07-02 00:46:54 - INFO -   Network: 2
2026-07-02 00:46:54 - INFO -   RLT: 6
2026-07-02 00:46:54 - INFO -   Relax-and-lift: 8
2026-07-02 00:46:54 - INFO - 
2026-07-02 00:46:54 - INFO - Explored 473895 nodes (69264247 simplex iterations) in 502.79 seconds (1093.45 work units)
2026-07-02 00:46:54 - INFO - Most recent optimization runtime was 0.00 seconds (0.00 work units)
2026-07-02 00:46:54 - INFO - Thread count was 28 (of 28 available processors)
2026-07-02 00:46:54 - INFO - 
2026-07-02 00:46:54 - INFO - Solution count 0
2026-07-02 00:46:54 - INFO - 
2026-07-02 00:46:54 - INFO - Model is infeasible
2026-07-02 00:46:54 - INFO - Best objective -, best bound -, gap -
2026-07-02 00:46:54 - INFO - 
EMIB returned 0 solution(s) (max 1).
 Ryzen 9 9950X3D 16-Core Processor, instruction set [SSE2|AVX|AVX2|AVX512]
Thread count: 14 physical cores, 28 logical processors, using up to 28 threads

Non-default parameters:
TimeLimit  300
MIPGap  0.3
Heuristics  0.5
MIPFocus  3

Optimize a model with 2347 rows, 1068 columns and 8079 nonzeros (Min)
Model fingerprint: 0xc7437ecd
Model has 3 linear objective coefficients
Variable types: 398 continuous, 670 integer (670 binary)
Coefficient statistics:
  Matrix range     [3e-01, 3e+03]
  Objective range  [4e-05, 9e-02]
  Bounds range     [9e-01, 3e+07]
  RHS range        [9e-01, 3e+02]

Presolved: 2164 rows, 907 columns, 7482 nonzeros

Continuing optimization...

 313170 41003    7.14963   27  195          -    7.02799      -   151  301s
 316847 40929    7.53185   34  234          -    7.04977      -   150  307s
 322818 40925    7.44611   32  138          -    7.06552      -   150  310s
 325444 40850    7.16650   33  163          -    7.08264      -   150  315s
 328517 40828 infeasible   28               -    7.10307      -   150  320s
 332462 40555 infeasible   34               -    7.12644      -   150  325s
 335358 40411 infeasible   35               -    7.14254      -   150  330s
 337383 40206 infeasible   39               -    7.14967      -   150  336s
 340472 39833 infeasible   36               -    7.16659      -   150  340s
 346075 39173 infeasible   34               -    7.20140      -   150  345s
 350393 38739 infeasible   36               -    7.22717      -   150  350s
 354266 37967 infeasible   31               -    7.25487      -   150  356s
 358615 37565    7.43345   30  190          -    7.28662      -   150  361s
 362971 37068    8.24160   33  151          -    7.31211      -   149  367s
 365349 36579    8.20651   34  129          -    7.33012      -   149  370s
 371224 35635    8.08941   33  132          -    7.37282      -   149  376s
 374390 34899 infeasible   43               -    7.39747      -   149  381s
 377768 34371 infeasible   30               -    7.41751      -   149  386s
 379911 33795 infeasible   33               -    7.43383      -   149  390s
 383788 33290    7.63052   39  134          -    7.47409      -   149  396s
 384460 33014 infeasible   39               -    7.47973      -   149  400s
 388262 32032 infeasible   36               -    7.49482      -   149  406s
 392606 31003 infeasible   37               -    7.53896      -   149  411s
 396679 30054 infeasible   32               -    7.59110      -   149  415s
 402698 28861 infeasible   35               -    7.64747      -   149  421s
 404553 28571 infeasible   40               -    7.66056      -   149  425s
 404858 28411 infeasible   39               -    7.67685      -   149  430s
 408661 26824 infeasible   38               -    7.71424      -   149  436s
 412769 25860    8.00834   36  143          -    7.76543      -   149  441s
 418223 23863 infeasible   38               -    7.83197      -   149  446s
 422235 22695 infeasible   33               -    7.88615      -   149  450s
 427896 20512    8.06414   37  128          -    7.96383      -   149  455s
 432613 19369 infeasible   35               -    8.04145      -   149  460s
 439362 17083 infeasible   37               -    8.14895      -   148  465s
 443926 15306 infeasible   39               -    8.22693      -   148  471s
 447706 13463 infeasible   37               -    8.30800      -   148  475s
 452288 11608 infeasible   44               -    8.40091      -   148  481s
 455407  9744 infeasible   38               -    8.45772      -   148  485s
 461671  6450 infeasible   37               -    8.71926      -   147  490s
 465683  4275 infeasible   42               -    8.90973      -   147  496s
 471426   788 infeasible   39               -    9.10217      -   146  501s

Cutting planes:
  Learned: 74
  Gomory: 305
  Lift-and-project: 95
  Cover: 25
  Implied bound: 2
  Projected implied bound: 1
  MIR: 216
  Flow cover: 996
  Inf proof: 77
  Network: 2
  RLT: 6
  Relax-and-lift: 8

Explored 473895 nodes (69264247 simplex iterations) in 502.77 seconds (1093.45 work units)
Most recent optimization runtime was 202.55 seconds (538.03 work units)
Thread count was 28 (of 28 available processors)

Solution count 0

Model is infeasible
Best objective -, best bound -, gap -
[EMIB] No feasible solution: MIPGap=0.3, status=3, time=202.57s, SolCount=0
[EMIB] Phase 2 no feasible solution, switching to phase 3 MIPGap=0.8.
Set parameter TimeLimit to value 3110
Set parameter MIPGap to value 0.8
Set parameter MIPFocus to value 3
Set parameter Heuristics to value 0.5
Set parameter LogToConsole to value 1
Gurobi Optimizer version 13.0.1 build v13.0.1rc0 (linux64 - "Ubuntu 20.04.6 LTS")

CPU model: AMD Ryzen 9 9950X3D 16-Core Processor, instruction set [SSE2|AVX|AVX2|AVX512]
Thread count: 14 physical cores, 28 logical processors, using up to 28 threads

Non-default parameters:
TimeLimit  3110
MIPGap  0.8
Heuristics  0.5
MIPFocus  3

Optimize a model with 2347 rows, 1068 columns and 8079 nonzeros (Min)
Model fingerprint: 0xc7437ecd
Model has 3 linear objective coefficients
Variable types: 398 continuous, 670 integer (670 binary)
Coefficient statistics:
  Matrix range     [3e-01, 3e+03]
  Objective range  [4e-05, 9e-02]
  Bounds range     [9e-01, 3e+07]
  RHS range        [9e-01, 3e+02]

Presolved: 2164 rows, 907 columns, 7482 nonzeros

Continuing optimization...


Cutting planes:
  Learned: 74
  Gomory: 305
  Lift-and-project: 95
  Cover: 25
  Implied bound: 2
  Projected implied bound: 1
  MIR: 216
  Flow cover: 996
  Inf proof: 77
  Network: 2
  RLT: 6
  Relax-and-lift: 8

Explored 473895 nodes (69264247 simplex iterations) in 502.79 seconds (1093.45 work units)
Most recent optimization runtime was 0.00 seconds (0.00 work units)
Thread count was 28 (of 28 available processors)

Solution count 0

Model is infeasible
Best objective -, best bound -, gap -
[EMIB] No feasible solution: MIPGap=0.8, status=3, time=0.00s, SolCount=0
[EMIB] Search failed, no feasible solution
  ✓ EMIB: 0 solution(s)
